c Qdimacs file from skolem function generator
p cnf 319 916
c a 224 226 228 230 232 234 236 238 240 242 244 246 248 250 252 254 256 258 260 262 264 266 268 270 272 274 276 278 280 282 284 286 287 288 289 290 291 292 293 294 295 296 297 298 299 300 301 302 303 304 305 306 307 308 309 310 311 312 313 314 315 316 317 318 0
c e 223 225 227 229 231 233 235 237 239 241 243 245 247 249 251 253 255 257 259 261 263 265 267 269 271 273 275 277 279 281 283 285 1 2 3 4 5 6 7 8 9 10 11 12 13 14 15 16 17 18 19 20 21 22 23 24 25 26 27 28 29 30 31 32 33 34 35 36 37 38 39 40 41 42 43 44 45 46 47 48 49 50 51 52 53 54 55 56 57 58 59 60 61 62 63 64 65 66 67 68 69 70 71 72 73 74 75 76 77 78 79 80 81 82 83 84 85 86 87 88 89 90 91 92 93 94 95 96 97 98 99 100 101 102 103 104 105 106 107 108 109 110 111 112 113 114 115 116 117 118 119 120 121 122 123 124 125 126 127 128 129 130 131 132 133 134 135 136 137 138 139 140 141 142 143 144 145 146 147 148 149 150 151 152 153 154 155 156 157 158 159 160 161 162 163 164 165 166 167 168 169 170 171 172 173 174 175 176 177 178 179 180 181 182 183 184 185 186 187 188 189 190 191 192 193 194 195 196 197 198 199 200 201 202 203 204 205 206 207 208 209 210 211 212 213 214 215 216 217 218 219 220 221 222 319 0
4 5 -129 0
4 5 222 0
4 5 -175 0
-4 -5 0
-4 129 175 -222 0
5 -6 -67 0
5 -65 -67 0
5 -66 -67 0
-5 67 0
-5 6 65 66 0
6 -283 7 64 0
6 284 7 64 0
-6 -64 0
-6 -7 0
-6 283 -284 0
7 279 8 63 0
7 -280 8 63 0
-7 -63 0
-7 -8 0
-7 -279 280 0
8 -279 9 62 0
8 280 9 62 0
-8 -62 0
-8 -9 0
-8 279 -280 0
9 275 10 61 0
9 -276 10 61 0
-9 -61 0
-9 -10 0
-9 -275 276 0
10 -275 11 60 0
10 276 11 60 0
-10 -60 0
-10 -11 0
-10 275 -276 0
11 271 12 59 0
11 -272 12 59 0
-11 -59 0
-11 -12 0
-11 -271 272 0
12 -271 13 58 0
12 272 13 58 0
-12 -58 0
-12 -13 0
-12 271 -272 0
13 267 14 57 0
13 -268 14 57 0
-13 -57 0
-13 -14 0
-13 -267 268 0
14 -267 15 56 0
14 268 15 56 0
-14 -56 0
-14 -15 0
-14 267 -268 0
15 263 16 55 0
15 -264 16 55 0
-15 -55 0
-15 -16 0
-15 -263 264 0
16 -263 17 54 0
16 264 17 54 0
-16 -54 0
-16 -17 0
-16 263 -264 0
17 259 18 53 0
17 -260 18 53 0
-17 -53 0
-17 -18 0
-17 -259 260 0
18 -259 19 52 0
18 260 19 52 0
-18 -52 0
-18 -19 0
-18 259 -260 0
19 255 20 51 0
19 -256 20 51 0
-19 -51 0
-19 -20 0
-19 -255 256 0
20 -255 21 50 0
20 256 21 50 0
-20 -50 0
-20 -21 0
-20 255 -256 0
21 251 22 49 0
21 -252 22 49 0
-21 -49 0
-21 -22 0
-21 -251 252 0
22 -251 23 48 0
22 252 23 48 0
-22 -48 0
-22 -23 0
-22 251 -252 0
23 247 24 47 0
23 -248 24 47 0
-23 -47 0
-23 -24 0
-23 -247 248 0
24 -247 25 46 0
24 248 25 46 0
-24 -46 0
-24 -25 0
-24 247 -248 0
25 243 26 45 0
25 -244 26 45 0
-25 -45 0
-25 -26 0
-25 -243 244 0
26 -243 27 44 0
26 244 27 44 0
-26 -44 0
-26 -27 0
-26 243 -244 0
27 239 28 43 0
27 -240 28 43 0
-27 -43 0
-27 -28 0
-27 -239 240 0
28 -239 29 42 0
28 240 29 42 0
-28 -42 0
-28 -29 0
-28 239 -240 0
29 235 30 41 0
29 -236 30 41 0
-29 -41 0
-29 -30 0
-29 -235 236 0
30 -235 31 40 0
30 236 31 40 0
-30 -40 0
-30 -31 0
-30 235 -236 0
31 231 32 39 0
31 -232 32 39 0
-31 -39 0
-31 -32 0
-31 -231 232 0
32 -231 33 38 0
32 232 33 38 0
-32 -38 0
-32 -33 0
-32 231 -232 0
33 227 34 37 0
33 -228 34 37 0
-33 -37 0
-33 -34 0
-33 -227 228 0
34 -227 35 36 0
34 228 35 36 0
-34 -36 0
-34 -35 0
-34 227 -228 0
35 223 -224 -226 0
35 223 -224 225 0
-35 -223 0
-35 224 0
-35 -225 226 0
36 225 -226 0
-36 -225 0
-36 226 0
37 -229 230 0
-37 229 0
-37 -230 0
38 229 -230 0
-38 -229 0
-38 230 0
39 -233 234 0
-39 233 0
-39 -234 0
40 233 -234 0
-40 -233 0
-40 234 0
41 -237 238 0
-41 237 0
-41 -238 0
42 237 -238 0
-42 -237 0
-42 238 0
43 -241 242 0
-43 241 0
-43 -242 0
44 241 -242 0
-44 -241 0
-44 242 0
45 -245 246 0
-45 245 0
-45 -246 0
46 245 -246 0
-46 -245 0
-46 246 0
47 -249 250 0
-47 249 0
-47 -250 0
48 249 -250 0
-48 -249 0
-48 250 0
49 -253 254 0
-49 253 0
-49 -254 0
50 253 -254 0
-50 -253 0
-50 254 0
51 -257 258 0
-51 257 0
-51 -258 0
52 257 -258 0
-52 -257 0
-52 258 0
53 -261 262 0
-53 261 0
-53 -262 0
54 261 -262 0
-54 -261 0
-54 262 0
55 -265 266 0
-55 265 0
-55 -266 0
56 265 -266 0
-56 -265 0
-56 266 0
57 -269 270 0
-57 269 0
-57 -270 0
58 269 -270 0
-58 -269 0
-58 270 0
59 -273 274 0
-59 273 0
-59 -274 0
60 273 -274 0
-60 -273 0
-60 274 0
61 -277 278 0
-61 277 0
-61 -278 0
62 277 -278 0
-62 -277 0
-62 278 0
63 -281 282 0
-63 281 0
-63 -282 0
64 281 -282 0
-64 -281 0
-64 282 0
65 -285 286 0
-65 285 0
-65 -286 0
66 -283 284 0
-66 283 0
-66 -284 0
67 285 286 68 0
67 -285 -318 68 0
-67 -68 0
-67 285 -286 0
-67 -285 318 0
68 -285 69 128 0
68 318 69 128 0
-68 -128 0
-68 -69 0
-68 285 -318 0
69 283 70 127 0
69 -317 70 127 0
-69 -127 0
-69 -70 0
-69 -283 317 0
70 -279 71 126 0
70 315 71 126 0
-70 -126 0
-70 -71 0
-70 279 -315 0
71 279 72 125 0
71 -315 72 125 0
-71 -125 0
-71 -72 0
-71 -279 315 0
72 -275 73 124 0
72 313 73 124 0
-72 -124 0
-72 -73 0
-72 275 -313 0
73 275 74 123 0
73 -313 74 123 0
-73 -123 0
-73 -74 0
-73 -275 313 0
74 -271 75 122 0
74 311 75 122 0
-74 -122 0
-74 -75 0
-74 271 -311 0
75 271 76 121 0
75 -311 76 121 0
-75 -121 0
-75 -76 0
-75 -271 311 0
76 -267 77 120 0
76 309 77 120 0
-76 -120 0
-76 -77 0
-76 267 -309 0
77 267 78 119 0
77 -309 78 119 0
-77 -119 0
-77 -78 0
-77 -267 309 0
78 -263 79 118 0
78 307 79 118 0
-78 -118 0
-78 -79 0
-78 263 -307 0
79 263 80 117 0
79 -307 80 117 0
-79 -117 0
-79 -80 0
-79 -263 307 0
80 -259 81 116 0
80 305 81 116 0
-80 -116 0
-80 -81 0
-80 259 -305 0
81 259 82 115 0
81 -305 82 115 0
-81 -115 0
-81 -82 0
-81 -259 305 0
82 -255 83 114 0
82 303 83 114 0
-82 -114 0
-82 -83 0
-82 255 -303 0
83 255 84 113 0
83 -303 84 113 0
-83 -113 0
-83 -84 0
-83 -255 303 0
84 -251 85 112 0
84 301 85 112 0
-84 -112 0
-84 -85 0
-84 251 -301 0
85 251 86 111 0
85 -301 86 111 0
-85 -111 0
-85 -86 0
-85 -251 301 0
86 -247 87 110 0
86 299 87 110 0
-86 -110 0
-86 -87 0
-86 247 -299 0
87 247 88 109 0
87 -299 88 109 0
-87 -109 0
-87 -88 0
-87 -247 299 0
88 -243 89 108 0
88 297 89 108 0
-88 -108 0
-88 -89 0
-88 243 -297 0
89 243 90 107 0
89 -297 90 107 0
-89 -107 0
-89 -90 0
-89 -243 297 0
90 -239 91 106 0
90 295 91 106 0
-90 -106 0
-90 -91 0
-90 239 -295 0
91 239 92 105 0
91 -295 92 105 0
-91 -105 0
-91 -92 0
-91 -239 295 0
92 -235 93 104 0
92 293 93 104 0
-92 -104 0
-92 -93 0
-92 235 -293 0
93 235 94 103 0
93 -293 94 103 0
-93 -103 0
-93 -94 0
-93 -235 293 0
94 -231 95 102 0
94 291 95 102 0
-94 -102 0
-94 -95 0
-94 231 -291 0
95 231 96 101 0
95 -291 96 101 0
-95 -101 0
-95 -96 0
-95 -231 291 0
96 -227 97 100 0
96 289 97 100 0
-96 -100 0
-96 -97 0
-96 227 -289 0
97 225 98 99 0
97 -288 98 99 0
-97 -99 0
-97 -98 0
-97 -225 288 0
98 -223 287 288 0
98 -223 -225 287 0
-98 223 0
-98 -287 0
-98 225 -288 0
99 -227 289 0
-99 227 0
-99 -289 0
100 229 -290 0
-100 -229 0
-100 290 0
101 -229 290 0
-101 229 0
-101 -290 0
102 233 -292 0
-102 -233 0
-102 292 0
103 -233 292 0
-103 233 0
-103 -292 0
104 237 -294 0
-104 -237 0
-104 294 0
105 -237 294 0
-105 237 0
-105 -294 0
106 241 -296 0
-106 -241 0
-106 296 0
107 -241 296 0
-107 241 0
-107 -296 0
108 245 -298 0
-108 -245 0
-108 298 0
109 -245 298 0
-109 245 0
-109 -298 0
110 249 -300 0
-110 -249 0
-110 300 0
111 -249 300 0
-111 249 0
-111 -300 0
112 253 -302 0
-112 -253 0
-112 302 0
113 -253 302 0
-113 253 0
-113 -302 0
114 257 -304 0
-114 -257 0
-114 304 0
115 -257 304 0
-115 257 0
-115 -304 0
116 261 -306 0
-116 -261 0
-116 306 0
117 -261 306 0
-117 261 0
-117 -306 0
118 265 -308 0
-118 -265 0
-118 308 0
119 -265 308 0
-119 265 0
-119 -308 0
120 269 -310 0
-120 -269 0
-120 310 0
121 -269 310 0
-121 269 0
-121 -310 0
122 273 -312 0
-122 -273 0
-122 312 0
123 -273 312 0
-123 273 0
-123 -312 0
124 277 -314 0
-124 -277 0
-124 314 0
125 -277 314 0
-125 277 0
-125 -314 0
126 281 -316 0
-126 -281 0
-126 316 0
127 -281 316 0
-127 281 0
-127 -316 0
128 283 -317 0
-128 -283 0
-128 317 0
129 285 130 131 0
129 -318 130 131 0
-129 -131 0
-129 -130 0
-129 -285 318 0
130 -283 317 0
-130 283 0
-130 -317 0
131 -283 126 132 0
131 317 126 132 0
-131 -132 0
-131 -126 0
-131 283 -317 0
132 281 133 134 0
132 -316 133 134 0
-132 -134 0
-132 -133 0
-132 -281 316 0
133 -279 315 0
-133 279 0
-133 -315 0
134 -279 124 135 0
134 315 124 135 0
-134 -135 0
-134 -124 0
-134 279 -315 0
135 277 136 137 0
135 -314 136 137 0
-135 -137 0
-135 -136 0
-135 -277 314 0
136 -275 313 0
-136 275 0
-136 -313 0
137 -275 122 138 0
137 313 122 138 0
-137 -138 0
-137 -122 0
-137 275 -313 0
138 273 139 140 0
138 -312 139 140 0
-138 -140 0
-138 -139 0
-138 -273 312 0
139 -271 311 0
-139 271 0
-139 -311 0
140 -271 120 141 0
140 311 120 141 0
-140 -141 0
-140 -120 0
-140 271 -311 0
141 269 142 143 0
141 -310 142 143 0
-141 -143 0
-141 -142 0
-141 -269 310 0
142 -267 309 0
-142 267 0
-142 -309 0
143 -267 118 144 0
143 309 118 144 0
-143 -144 0
-143 -118 0
-143 267 -309 0
144 265 145 146 0
144 -308 145 146 0
-144 -146 0
-144 -145 0
-144 -265 308 0
145 -263 307 0
-145 263 0
-145 -307 0
146 -263 116 147 0
146 307 116 147 0
-146 -147 0
-146 -116 0
-146 263 -307 0
147 261 148 149 0
147 -306 148 149 0
-147 -149 0
-147 -148 0
-147 -261 306 0
148 -259 305 0
-148 259 0
-148 -305 0
149 -259 114 150 0
149 305 114 150 0
-149 -150 0
-149 -114 0
-149 259 -305 0
150 257 151 152 0
150 -304 151 152 0
-150 -152 0
-150 -151 0
-150 -257 304 0
151 -255 303 0
-151 255 0
-151 -303 0
152 -255 112 153 0
152 303 112 153 0
-152 -153 0
-152 -112 0
-152 255 -303 0
153 253 154 155 0
153 -302 154 155 0
-153 -155 0
-153 -154 0
-153 -253 302 0
154 -251 301 0
-154 251 0
-154 -301 0
155 -251 110 156 0
155 301 110 156 0
-155 -156 0
-155 -110 0
-155 251 -301 0
156 249 157 158 0
156 -300 157 158 0
-156 -158 0
-156 -157 0
-156 -249 300 0
157 -247 299 0
-157 247 0
-157 -299 0
158 -247 108 159 0
158 299 108 159 0
-158 -159 0
-158 -108 0
-158 247 -299 0
159 245 160 161 0
159 -298 160 161 0
-159 -161 0
-159 -160 0
-159 -245 298 0
160 -243 297 0
-160 243 0
-160 -297 0
161 -243 106 162 0
161 297 106 162 0
-161 -162 0
-161 -106 0
-161 243 -297 0
162 241 163 164 0
162 -296 163 164 0
-162 -164 0
-162 -163 0
-162 -241 296 0
163 -239 295 0
-163 239 0
-163 -295 0
164 -239 104 165 0
164 295 104 165 0
-164 -165 0
-164 -104 0
-164 239 -295 0
165 237 166 167 0
165 -294 166 167 0
-165 -167 0
-165 -166 0
-165 -237 294 0
166 -235 293 0
-166 235 0
-166 -293 0
167 -235 102 168 0
167 293 102 168 0
-167 -168 0
-167 -102 0
-167 235 -293 0
168 233 169 170 0
168 -292 169 170 0
-168 -170 0
-168 -169 0
-168 -233 292 0
169 -231 291 0
-169 231 0
-169 -291 0
170 -231 100 171 0
170 291 100 171 0
-170 -171 0
-170 -100 0
-170 231 -291 0
171 229 99 172 0
171 -290 99 172 0
-171 -172 0
-171 -99 0
-171 -229 290 0
172 -227 173 174 0
172 289 173 174 0
-172 -174 0
-172 -173 0
-172 227 -289 0
173 225 -288 0
-173 -225 0
-173 288 0
174 223 -287 -288 0
174 223 225 -287 0
-174 -223 0
-174 287 0
-174 -225 288 0
175 -285 176 177 0
175 286 176 177 0
-175 -177 0
-175 -176 0
-175 285 -286 0
176 283 -284 0
-176 -283 0
-176 284 0
177 283 63 178 0
177 -284 63 178 0
-177 -178 0
-177 -63 0
-177 -283 284 0
178 -281 179 180 0
178 282 179 180 0
-178 -180 0
-178 -179 0
-178 281 -282 0
179 279 -280 0
-179 -279 0
-179 280 0
180 279 61 181 0
180 -280 61 181 0
-180 -181 0
-180 -61 0
-180 -279 280 0
181 -277 182 183 0
181 278 182 183 0
-181 -183 0
-181 -182 0
-181 277 -278 0
182 275 -276 0
-182 -275 0
-182 276 0
183 275 59 184 0
183 -276 59 184 0
-183 -184 0
-183 -59 0
-183 -275 276 0
184 -273 185 186 0
184 274 185 186 0
-184 -186 0
-184 -185 0
-184 273 -274 0
185 271 -272 0
-185 -271 0
-185 272 0
186 271 57 187 0
186 -272 57 187 0
-186 -187 0
-186 -57 0
-186 -271 272 0
187 -269 188 189 0
187 270 188 189 0
-187 -189 0
-187 -188 0
-187 269 -270 0
188 267 -268 0
-188 -267 0
-188 268 0
189 267 55 190 0
189 -268 55 190 0
-189 -190 0
-189 -55 0
-189 -267 268 0
190 -265 191 192 0
190 266 191 192 0
-190 -192 0
-190 -191 0
-190 265 -266 0
191 263 -264 0
-191 -263 0
-191 264 0
192 263 53 193 0
192 -264 53 193 0
-192 -193 0
-192 -53 0
-192 -263 264 0
193 -261 194 195 0
193 262 194 195 0
-193 -195 0
-193 -194 0
-193 261 -262 0
194 259 -260 0
-194 -259 0
-194 260 0
195 259 51 196 0
195 -260 51 196 0
-195 -196 0
-195 -51 0
-195 -259 260 0
196 -257 197 198 0
196 258 197 198 0
-196 -198 0
-196 -197 0
-196 257 -258 0
197 255 -256 0
-197 -255 0
-197 256 0
198 255 49 199 0
198 -256 49 199 0
-198 -199 0
-198 -49 0
-198 -255 256 0
199 -253 200 201 0
199 254 200 201 0
-199 -201 0
-199 -200 0
-199 253 -254 0
200 251 -252 0
-200 -251 0
-200 252 0
201 251 47 202 0
201 -252 47 202 0
-201 -202 0
-201 -47 0
-201 -251 252 0
202 -249 203 204 0
202 250 203 204 0
-202 -204 0
-202 -203 0
-202 249 -250 0
203 247 -248 0
-203 -247 0
-203 248 0
204 247 45 205 0
204 -248 45 205 0
-204 -205 0
-204 -45 0
-204 -247 248 0
205 -245 206 207 0
205 246 206 207 0
-205 -207 0
-205 -206 0
-205 245 -246 0
206 243 -244 0
-206 -243 0
-206 244 0
207 243 43 208 0
207 -244 43 208 0
-207 -208 0
-207 -43 0
-207 -243 244 0
208 -241 209 210 0
208 242 209 210 0
-208 -210 0
-208 -209 0
-208 241 -242 0
209 239 -240 0
-209 -239 0
-209 240 0
210 239 41 211 0
210 -240 41 211 0
-210 -211 0
-210 -41 0
-210 -239 240 0
211 -237 212 213 0
211 238 212 213 0
-211 -213 0
-211 -212 0
-211 237 -238 0
212 235 -236 0
-212 -235 0
-212 236 0
213 235 39 214 0
213 -236 39 214 0
-213 -214 0
-213 -39 0
-213 -235 236 0
214 -233 215 216 0
214 234 215 216 0
-214 -216 0
-214 -215 0
-214 233 -234 0
215 231 -232 0
-215 -231 0
-215 232 0
216 231 37 217 0
216 -232 37 217 0
-216 -217 0
-216 -37 0
-216 -231 232 0
217 -229 218 219 0
217 230 218 219 0
-217 -219 0
-217 -218 0
-217 229 -230 0
218 227 -228 0
-218 -227 0
-218 228 0
219 227 220 221 0
219 -228 220 221 0
-219 -221 0
-219 -220 0
-219 -227 228 0
220 -225 226 0
-220 225 0
-220 -226 0
221 -223 224 -225 0
221 -223 224 226 0
-221 223 0
-221 -224 0
-221 225 -226 0
222 -285 -286 0
222 285 318 0
-222 -285 286 0
-222 285 -318 0
319 0
2 4 0
-2 -4 0
3 4 0
-3 -4 0
3 0

